(set-logic QF_FP)
(set-info :smt-lib-version 2.0)
(set-info :category "crafted")
(set-info :source |Alberto Griggio <griggio@fbk.eu>. These benchmarks were used for the evaluation in the following paper: L. Haller, A. Griggio, M. Brain, D. Kroening: Deciding floating-point logic with systematic abstraction. FMCAD 2012. Real-numbered literals have been automatically translated by MathSAT|)
(set-info :status unknown)
;; MathSAT API call trace
;; generated on 05/20/15 17:24:51

(declare-fun b24 () (_ FloatingPoint 11 53))
(declare-fun b28 () (_ FloatingPoint 11 53))
(declare-fun b21 () (_ FloatingPoint 11 53))
(declare-fun b41 () (_ FloatingPoint 11 53))
(declare-fun b8 () (_ FloatingPoint 11 53))
(declare-fun b11 () (_ FloatingPoint 11 53))
(declare-fun b9 () (_ FloatingPoint 11 53))
(declare-fun b19 () (_ FloatingPoint 11 53))
(declare-fun b38 () (_ FloatingPoint 11 53))
(declare-fun b31 () (_ FloatingPoint 11 53))
(declare-fun b15 () (_ FloatingPoint 11 53))
(define-fun _t_3 () RoundingMode RNE)
(define-fun _t_9 () (_ FloatingPoint 11 53) b9)
(define-fun _t_10 () (_ FloatingPoint 11 53) b21)
(define-fun _t_11 () Bool (fp.leq _t_9 _t_10))
(define-fun _t_12 () (_ FloatingPoint 11 53) b11)
(define-fun _t_13 () (_ FloatingPoint 11 53) (fp.add _t_3 _t_9 _t_12))
(define-fun _t_14 () (_ FloatingPoint 11 53) b8)
(define-fun _t_15 () (_ FloatingPoint 11 53) (fp.add _t_3 _t_9 _t_14))
(define-fun _t_16 () (_ FloatingPoint 11 53) (fp.mul _t_3 _t_13 _t_15))
(define-fun _t_17 () (_ FloatingPoint 11 53) b15)
(define-fun _t_18 () Bool (fp.lt _t_17 _t_16))
(define-fun _t_19 () Bool (and _t_11 _t_18))
(define-fun _t_20 () (_ FloatingPoint 11 53) b24)
(define-fun _t_21 () Bool (fp.leq _t_20 _t_9))
(define-fun _t_22 () Bool (and _t_19 _t_21))
(define-fun _t_23 () (_ FloatingPoint 11 53) b28)
(define-fun _t_24 () Bool (fp.leq _t_14 _t_23))
(define-fun _t_25 () Bool (and _t_22 _t_24))
(define-fun _t_26 () (_ FloatingPoint 11 53) b31)
(define-fun _t_27 () Bool (fp.leq _t_26 _t_14))
(define-fun _t_28 () Bool (and _t_25 _t_27))
(define-fun _t_29 () Bool (fp.leq _t_12 _t_23))
(define-fun _t_30 () Bool (and _t_28 _t_29))
(define-fun _t_31 () Bool (fp.leq _t_26 _t_12))
(define-fun _t_32 () Bool (and _t_30 _t_31))
(define-fun _t_33 () (_ FloatingPoint 11 53) b19)
(define-fun _t_34 () (_ FloatingPoint 11 53) b38)
(define-fun _t_35 () Bool (fp.leq _t_33 _t_34))
(define-fun _t_36 () Bool (and _t_32 _t_35))
(define-fun _t_37 () (_ FloatingPoint 11 53) b41)
(define-fun _t_38 () Bool (fp.leq _t_37 _t_33))
(define-fun _t_39 () Bool (and _t_36 _t_38))
(assert _t_39)
(check-sat)
